sat
(model 
  (define-fun |required(ezcsp__leq(nWeight(1),ezcsp__mn(ezcsp__pl(89,52),52)))| () Bool
    false)
  (define-fun |required(ezcsp__eq(nWeight(7),ezcsp__pl(nWeight(6),0)))| () Bool
    false)
  (define-fun |required(ezcsp__eq(nWeight(1),152))| () Bool
    false)
  (define-fun |leafPos(8,6)| () Bool
    false)
  (define-fun |nWeight(6)| () Int
    114)
  (define-fun |408| () Bool
    false)
  (define-fun |required(ezcsp__eq(nWeight(1),84))| () Bool
    false)
  (define-fun |posColor(4,blue)| () Bool
    false)
  (define-fun |required(ezcsp__gt(nWeight(2),ezcsp__mn(ezcsp__pl(23,0),0)))| () Bool
    true)
  (define-fun |required(ezcsp__gt(nWeight(5),ezcsp__mn(ezcsp__pl(67,63),63)))| () Bool
    false)
  (define-fun |required(ezcsp__eq(nWeight(1),32))| () Bool
    false)
  (define-fun |nWeight(5)| () Int
    58)
  (define-fun |leafPos(5,5)| () Bool
    false)
  (define-fun |478| () Bool
    false)
  (define-fun |required(ezcsp__eq(nWeight(4),91))| () Bool
    false)
  (define-fun |leafPos(8,1)| () Bool
    false)
  (define-fun |required(ezcsp__gt(nWeight(1),ezcsp__mn(ezcsp__pl(67,63),63)))| () Bool
    true)
  (define-fun |leafPos(3,7)| () Bool
    false)
  (define-fun |458| () Bool
    false)
  (define-fun |required(ezcsp__eq(nWeight(5),112))| () Bool
    false)
  (define-fun |required(ezcsp__leq(nWeight(3),ezcsp__mn(ezcsp__pl(23,0),0)))| () Bool
    false)
  (define-fun |414| () Bool
    false)
  (define-fun |494| () Bool
    false)
  (define-fun |462| () Bool
    false)
  (define-fun |leafPos(7,3)| () Bool
    false)
  (define-fun |leafPos(1,6)| () Bool
    false)
  (define-fun |posColor(6,blue)| () Bool
    true)
  (define-fun |470| () Bool
    false)
  (define-fun |leafPos(4,2)| () Bool
    false)
  (define-fun |posColor(3,blue)| () Bool
    false)
  (define-fun |required(ezcsp__gt(nWeight(3),ezcsp__mn(ezcsp__pl(56,56),56)))| () Bool
    false)
  (define-fun |posColor(1,green)| () Bool
    false)
  (define-fun |427| () Bool
    false)
  (define-fun |leafPos(7,7)| () Bool
    false)
  (define-fun |required(ezcsp__leq(nWeight(4),ezcsp__mn(ezcsp__pl(56,56),56)))| () Bool
    false)
  (define-fun |required(ezcsp__gt(nWeight(5),ezcsp__mn(ezcsp__pl(85,56),56)))| () Bool
    false)
  (define-fun |required(ezcsp__leq(nWeight(5),ezcsp__mn(ezcsp__pl(89,52),52)))| () Bool
    false)
  (define-fun |required(ezcsp__eq(nWeight(1),110))| () Bool
    false)
  (define-fun |leafPos(5,7)| () Bool
    false)
  (define-fun |leafPos(3,1)| () Bool
    false)
  (define-fun |416| () Bool
    false)
  (define-fun |leafPos(2,6)| () Bool
    false)
  (define-fun |required(ezcsp__leq(nWeight(4),ezcsp__mn(ezcsp__pl(85,56),56)))| () Bool
    false)
  (define-fun |required(ezcsp__eq(nWeight(1),117))| () Bool
    false)
  (define-fun |required(ezcsp__eq(nWeight(6),91))| () Bool
    false)
  (define-fun |leafPos(1,5)| () Bool
    false)
  (define-fun |leafPos(2,3)| () Bool
    false)
  (define-fun |required(ezcsp__gt(nWeight(4),ezcsp__mn(ezcsp__pl(54,69),54)))| () Bool
    false)
  (define-fun |required(ezcsp__gt(nWeight(1),ezcsp__mn(ezcsp__pl(32,59),32)))| () Bool
    false)
  (define-fun |446| () Bool
    false)
  (define-fun |required(ezcsp__eq(nWeight(5),130))| () Bool
    false)
  (define-fun |posColor(5,red)| () Bool
    true)
  (define-fun |409| () Bool
    false)
  (define-fun |415| () Bool
    false)
  (define-fun |nWeight(3)| () Int
    23)
  (define-fun |486| () Bool
    false)
  (define-fun |required(ezcsp__eq(nWeight(3),141))| () Bool
    false)
  (define-fun |464| () Bool
    false)
  (define-fun |leafPos(7,5)| () Bool
    true)
  (define-fun |461| () Bool
    false)
  (define-fun |leafPos(4,0)| () Bool
    false)
  (define-fun |required(ezcsp__leq(nWeight(5),ezcsp__mn(ezcsp__pl(56,56),56)))| () Bool
    false)
  (define-fun |leafPos(6,6)| () Bool
    true)
  (define-fun |required(ezcsp__leq(nWeight(2),ezcsp__mn(ezcsp__pl(3,77),3)))| () Bool
    false)
  (define-fun |required(ezcsp__eq(nWeight(1),91))| () Bool
    false)
  (define-fun |required(ezcsp__eq(nWeight(6),130))| () Bool
    false)
  (define-fun |required(ezcsp__eq(nWeight(2),ezcsp__pl(nWeight(1),54)))| () Bool
    false)
  (define-fun |required(ezcsp__gt(nWeight(3),ezcsp__mn(ezcsp__pl(3,77),3)))| () Bool
    false)
  (define-fun |required(ezcsp__gt(nWeight(1),ezcsp__mn(ezcsp__pl(56,56),56)))| () Bool
    false)
  (define-fun |required(ezcsp__leq(nWeight(1),ezcsp__mn(ezcsp__pl(23,0),0)))| () Bool
    false)
  (define-fun |posColor(3,red)| () Bool
    false)
  (define-fun |431| () Bool
    false)
  (define-fun |required(ezcsp__leq(nWeight(3),ezcsp__mn(ezcsp__pl(56,56),56)))| () Bool
    false)
  (define-fun |required(ezcsp__gt(nWeight(6),ezcsp__mn(ezcsp__pl(54,69),54)))| () Bool
    false)
  (define-fun |432| () Bool
    false)
  (define-fun |418| () Bool
    false)
  (define-fun |posColor(5,blue)| () Bool
    false)
  (define-fun |leafPos(4,3)| () Bool
    false)
  (define-fun |434| () Bool
    false)
  (define-fun |required(ezcsp__gt(nWeight(1),ezcsp__mn(ezcsp__pl(54,69),54)))| () Bool
    false)
  (define-fun |required(ezcsp__gt(nWeight(6),ezcsp__mn(ezcsp__pl(67,63),63)))| () Bool
    false)
  (define-fun |required(ezcsp__eq(nWeight(6),ezcsp__pl(nWeight(5),3)))| () Bool
    false)
  (define-fun |required(ezcsp__gt(nWeight(4),ezcsp__mn(ezcsp__pl(23,0),0)))| () Bool
    false)
  (define-fun |required(ezcsp__eq(nWeight(1),88))| () Bool
    false)
  (define-fun |467| () Bool
    false)
  (define-fun |leafPos(2,7)| () Bool
    false)
  (define-fun |required(ezcsp__eq(nWeight(2),112))| () Bool
    false)
  (define-fun |required(ezcsp__eq(nWeight(6),ezcsp__pl(nWeight(5),32)))| () Bool
    false)
  (define-fun |required(ezcsp__eq(nWeight(1),66))| () Bool
    false)
  (define-fun |489| () Bool
    false)
  (define-fun |required(ezcsp__gt(nWeight(4),ezcsp__mn(ezcsp__pl(89,52),52)))| () Bool
    false)
  (define-fun |required(ezcsp__eq(nWeight(7),ezcsp__pl(nWeight(6),32)))| () Bool
    false)
  (define-fun |required(ezcsp__eq(nWeight(3),ezcsp__pl(nWeight(2),54)))| () Bool
    false)
  (define-fun |leafPos(2,1)| () Bool
    false)
  (define-fun |required(ezcsp__eq(nWeight(1),141))| () Bool
    false)
  (define-fun |required(ezcsp__leq(nWeight(5),ezcsp__mn(ezcsp__pl(23,0),0)))| () Bool
    false)
  (define-fun |leafPos(4,6)| () Bool
    false)
  (define-fun |leafPos(5,0)| () Bool
    false)
  (define-fun |required(ezcsp__eq(nWeight(4),ezcsp__pl(nWeight(3),3)))| () Bool
    true)
  (define-fun |posColor(2,blue)| () Bool
    false)
  (define-fun |required(ezcsp__eq(nWeight(1),112))| () Bool
    false)
  (define-fun |leafPos(7,4)| () Bool
    false)
  (define-fun |required(ezcsp__eq(nWeight(6),ezcsp__pl(nWeight(5),63)))| () Bool
    false)
  (define-fun |required(ezcsp__eq(nWeight(1),89))| () Bool
    false)
  (define-fun |required(ezcsp__leq(nWeight(6),ezcsp__mn(ezcsp__pl(32,59),32)))| () Bool
    false)
  (define-fun |required(ezcsp__gt(nWeight(3),ezcsp__mn(ezcsp__pl(85,56),56)))| () Bool
    false)
  (define-fun |required(ezcsp__eq(nWeight(6),ezcsp__pl(nWeight(5),56)))| () Bool
    true)
  (define-fun |468| () Bool
    false)
  (define-fun |426| () Bool
    true)
  (define-fun |required(ezcsp__eq(nWeight(3),123))| () Bool
    false)
  (define-fun |posColor(2,green)| () Bool
    true)
  (define-fun |428| () Bool
    false)
  (define-fun |required(ezcsp__eq(nWeight(3),ezcsp__pl(nWeight(2),52)))| () Bool
    false)
  (define-fun |required(ezcsp__eq(nWeight(2),ezcsp__pl(nWeight(1),63)))| () Bool
    false)
  (define-fun |required(ezcsp__gt(nWeight(2),ezcsp__mn(ezcsp__pl(89,52),52)))| () Bool
    false)
  (define-fun |required(ezcsp__gt(nWeight(4),ezcsp__mn(ezcsp__pl(32,59),32)))| () Bool
    false)
  (define-fun |leafPos(4,5)| () Bool
    false)
  (define-fun |required(ezcsp__eq(nWeight(2),ezcsp__pl(nWeight(1),3)))| () Bool
    false)
  (define-fun |required(ezcsp__leq(nWeight(6),ezcsp__mn(ezcsp__pl(23,0),0)))| () Bool
    false)
  (define-fun |required(ezcsp__leq(nWeight(2),ezcsp__mn(ezcsp__pl(67,63),63)))| () Bool
    false)
  (define-fun |required(ezcsp__eq(nWeight(7),80))| () Bool
    false)
  (define-fun |480| () Bool
    false)
  (define-fun |required(ezcsp__eq(nWeight(3),112))| () Bool
    false)
  (define-fun |required(ezcsp__gt(nWeight(3),ezcsp__mn(ezcsp__pl(54,69),54)))| () Bool
    false)
  (define-fun |required(ezcsp__eq(nWeight(7),141))| () Bool
    false)
  (define-fun |leafPos(6,7)| () Bool
    false)
  (define-fun |required(ezcsp__leq(nWeight(2),ezcsp__mn(ezcsp__pl(85,56),56)))| () Bool
    false)
  (define-fun |413| () Bool
    false)
  (define-fun |459| () Bool
    false)
  (define-fun |required(ezcsp__eq(nWeight(5),80))| () Bool
    false)
  (define-fun |leafPos(6,2)| () Bool
    false)
  (define-fun |leafPos(4,1)| () Bool
    false)
  (define-fun |502| () Bool
    false)
  (define-fun |required(ezcsp__eq(nWeight(1),80))| () Bool
    false)
  (define-fun |required(ezcsp__eq(nWeight(1),137))| () Bool
    false)
  (define-fun |required(ezcsp__leq(nWeight(6),ezcsp__mn(ezcsp__pl(89,52),52)))| () Bool
    false)
  (define-fun |required(ezcsp__eq(nWeight(3),91))| () Bool
    false)
  (define-fun |required(ezcsp__eq(nWeight(7),ezcsp__pl(nWeight(6),54)))| () Bool
    false)
  (define-fun |required(ezcsp__leq(nWeight(4),ezcsp__mn(ezcsp__pl(23,0),0)))| () Bool
    false)
  (define-fun |required(ezcsp__eq(nWeight(1),59))| () Bool
    false)
  (define-fun |required(ezcsp__leq(nWeight(3),ezcsp__mn(ezcsp__pl(3,77),3)))| () Bool
    true)
  (define-fun |required(ezcsp__eq(nWeight(3),ezcsp__pl(nWeight(2),0)))| () Bool
    false)
  (define-fun |455| () Bool
    false)
  (define-fun |required(ezcsp__eq(nWeight(1),26))| () Bool
    false)
  (define-fun |leafPos(8,5)| () Bool
    false)
  (define-fun |required(ezcsp__leq(nWeight(6),ezcsp__mn(ezcsp__pl(54,69),54)))| () Bool
    false)
  (define-fun |required(ezcsp__eq(nWeight(1),77))| () Bool
    false)
  (define-fun |required(ezcsp__eq(nWeight(6),23))| () Bool
    false)
  (define-fun |required(ezcsp__eq(nWeight(5),91))| () Bool
    false)
  (define-fun |required(ezcsp__gt(nWeight(4),ezcsp__mn(ezcsp__pl(56,56),56)))| () Bool
    false)
  (define-fun |required(ezcsp__eq(nWeight(1),86))| () Bool
    false)
  (define-fun |444| () Bool
    false)
  (define-fun |required(ezcsp__leq(nWeight(6),ezcsp__mn(ezcsp__pl(85,56),56)))| () Bool
    false)
  (define-fun |required(ezcsp__eq(nWeight(4),80))| () Bool
    false)
  (define-fun |required(ezcsp__eq(nWeight(1),108))| () Bool
    false)
  (define-fun |437| () Bool
    false)
  (define-fun |required(ezcsp__leq(nWeight(2),ezcsp__mn(ezcsp__pl(23,0),0)))| () Bool
    false)
  (define-fun |433| () Bool
    false)
  (define-fun |leafPos(2,5)| () Bool
    false)
  (define-fun |required(ezcsp__eq(nWeight(5),ezcsp__pl(nWeight(4),52)))| () Bool
    false)
  (define-fun |required(ezcsp__leq(nWeight(3),ezcsp__mn(ezcsp__pl(67,63),63)))| () Bool
    false)
  (define-fun |posColor(4,green)| () Bool
    false)
  (define-fun |leafPos(4,7)| () Bool
    true)
  (define-fun |required(ezcsp__eq(nWeight(2),ezcsp__pl(nWeight(1),32)))| () Bool
    false)
  (define-fun |leafPos(7,0)| () Bool
    false)
  (define-fun |422| () Bool
    false)
  (define-fun |498| () Bool
    false)
  (define-fun |required(ezcsp__leq(nWeight(2),ezcsp__mn(ezcsp__pl(32,59),32)))| () Bool
    false)
  (define-fun |required(ezcsp__eq(nWeight(1),56))| () Bool
    false)
  (define-fun |required(ezcsp__eq(nWeight(2),123))| () Bool
    false)
  (define-fun |required(ezcsp__eq(nWeight(1),148))| () Bool
    false)
  (define-fun |451| () Bool
    false)
  (define-fun |required(ezcsp__eq(nWeight(5),ezcsp__pl(nWeight(4),54)))| () Bool
    false)
  (define-fun |required(ezcsp__gt(nWeight(5),ezcsp__mn(ezcsp__pl(32,59),32)))| () Bool
    false)
  (define-fun |required(ezcsp__eq(nWeight(1),143))| () Bool
    false)
  (define-fun |leafPos(2,4)| () Bool
    false)
  (define-fun |required(ezcsp__eq(nWeight(2),ezcsp__pl(nWeight(1),56)))| () Bool
    false)
  (define-fun |posColor(6,red)| () Bool
    false)
  (define-fun |482| () Bool
    false)
  (define-fun |required(ezcsp__eq(nWeight(1),64))| () Bool
    false)
  (define-fun |required(ezcsp__leq(nWeight(4),ezcsp__mn(ezcsp__pl(67,63),63)))| () Bool
    false)
  (define-fun |required(ezcsp__eq(nWeight(2),ezcsp__pl(nWeight(1),52)))| () Bool
    false)
  (define-fun |required(ezcsp__eq(nWeight(3),ezcsp__pl(nWeight(2),63)))| () Bool
    false)
  (define-fun |406| () Bool
    false)
  (define-fun |450| () Bool
    false)
  (define-fun |required(ezcsp__eq(nWeight(1),99))| () Bool
    false)
  (define-fun |441| () Bool
    false)
  (define-fun |485| () Bool
    false)
  (define-fun |required(ezcsp__leq(nWeight(5),ezcsp__mn(ezcsp__pl(3,77),3)))| () Bool
    false)
  (define-fun |479| () Bool
    false)
  (define-fun |required(ezcsp__eq(nWeight(5),23))| () Bool
    false)
  (define-fun |430| () Bool
    false)
  (define-fun |required(ezcsp__eq(nWeight(7),23))| () Bool
    false)
  (define-fun |required(ezcsp__eq(nWeight(1),75))| () Bool
    false)
  (define-fun |required(ezcsp__leq(nWeight(3),ezcsp__mn(ezcsp__pl(32,59),32)))| () Bool
    false)
  (define-fun |447| () Bool
    false)
  (define-fun |488| () Bool
    false)
  (define-fun |required(ezcsp__eq(nWeight(3),ezcsp__pl(nWeight(2),32)))| () Bool
    false)
  (define-fun |required(ezcsp__leq(nWeight(6),ezcsp__mn(ezcsp__pl(56,56),56)))| () Bool
    false)
  (define-fun |leafPos(5,1)| () Bool
    true)
  (define-fun |posColor(1,blue)| () Bool
    true)
  (define-fun |required(ezcsp__gt(nWeight(5),ezcsp__mn(ezcsp__pl(23,0),0)))| () Bool
    false)
  (define-fun |required(ezcsp__gt(nWeight(3),ezcsp__mn(ezcsp__pl(67,63),63)))| () Bool
    false)
  (define-fun |required(ezcsp__gt(nWeight(4),ezcsp__mn(ezcsp__pl(85,56),56)))| () Bool
    false)
  (define-fun |required(ezcsp__eq(nWeight(2),80))| () Bool
    false)
  (define-fun |472| () Bool
    false)
  (define-fun |posColor(1,red)| () Bool
    false)
  (define-fun |leafPos(1,0)| () Bool
    true)
  (define-fun |492| () Bool
    false)
  (define-fun |required(ezcsp__gt(nWeight(1),ezcsp__mn(ezcsp__pl(89,52),52)))| () Bool
    false)
  (define-fun |501| () Bool
    false)
  (define-fun |454| () Bool
    false)
  (define-fun |440| () Bool
    false)
  (define-fun |leafPos(6,3)| () Bool
    false)
  (define-fun |leafPos(7,1)| () Bool
    false)
  (define-fun |leafPos(8,7)| () Bool
    false)
  (define-fun |leafPos(6,5)| () Bool
    false)
  (define-fun |posColor(7,green)| () Bool
    true)
  (define-fun |required(ezcsp__eq(nWeight(6),ezcsp__pl(nWeight(5),0)))| () Bool
    false)
  (define-fun |leafPos(1,1)| () Bool
    false)
  (define-fun |419| () Bool
    false)
  (define-fun |required(ezcsp__eq(nWeight(6),141))| () Bool
    false)
  (define-fun |490| () Bool
    false)
  (define-fun |required(ezcsp__eq(nWeight(2),23))| () Bool
    false)
  (define-fun |required(ezcsp__eq(nWeight(1),130))| () Bool
    false)
  (define-fun |required(ezcsp__eq(nWeight(4),ezcsp__pl(nWeight(3),0)))| () Bool
    false)
  (define-fun |417| () Bool
    false)
  (define-fun |476| () Bool
    false)
  (define-fun |477| () Bool
    false)
  (define-fun |500| () Bool
    false)
  (define-fun |leafPos(3,6)| () Bool
    false)
  (define-fun |required(ezcsp__leq(nWeight(3),ezcsp__mn(ezcsp__pl(85,56),56)))| () Bool
    false)
  (define-fun |required(ezcsp__gt(nWeight(4),ezcsp__mn(ezcsp__pl(67,63),63)))| () Bool
    false)
  (define-fun |leafPos(3,5)| () Bool
    false)
  (define-fun |required(ezcsp__eq(nWeight(5),141))| () Bool
    false)
  (define-fun |posColor(2,red)| () Bool
    false)
  (define-fun |required(ezcsp__eq(nWeight(6),123))| () Bool
    false)
  (define-fun |required(ezcsp__eq(nWeight(1),54))| () Bool
    false)
  (define-fun |438| () Bool
    false)
  (define-fun |leafPos(5,2)| () Bool
    false)
  (define-fun |410| () Bool
    false)
  (define-fun |required(ezcsp__eq(nWeight(4),ezcsp__pl(nWeight(3),56)))| () Bool
    false)
  (define-fun |leafPos(4,4)| () Bool
    false)
  (define-fun |required(ezcsp__gt(nWeight(2),ezcsp__mn(ezcsp__pl(67,63),63)))| () Bool
    false)
  (define-fun |required(ezcsp__leq(nWeight(1),ezcsp__mn(ezcsp__pl(54,69),54)))| () Bool
    false)
  (define-fun |leafPos(3,2)| () Bool
    false)
  (define-fun |required(ezcsp__eq(nWeight(5),ezcsp__pl(nWeight(4),63)))| () Bool
    false)
  (define-fun |495| () Bool
    false)
  (define-fun |posColor(7,blue)| () Bool
    false)
  (define-fun |required(ezcsp__gt(nWeight(6),ezcsp__mn(ezcsp__pl(89,52),52)))| () Bool
    false)
  (define-fun |leafPos(6,1)| () Bool
    false)
  (define-fun |required(ezcsp__eq(nWeight(5),123))| () Bool
    false)
  (define-fun |leafPos(2,0)| () Bool
    false)
  (define-fun |required(ezcsp__leq(nWeight(4),ezcsp__mn(ezcsp__pl(3,77),3)))| () Bool
    false)
  (define-fun |required(ezcsp__eq(nWeight(1),35))| () Bool
    false)
  (define-fun |required(ezcsp__eq(nWeight(1),6))| () Bool
    false)
  (define-fun |posColor(7,red)| () Bool
    false)
  (define-fun |posColor(6,green)| () Bool
    false)
  (define-fun |required(ezcsp__eq(nWeight(7),ezcsp__pl(nWeight(6),63)))| () Bool
    false)
  (define-fun |required(ezcsp__eq(nWeight(1),3))| () Bool
    false)
  (define-fun |499| () Bool
    true)
  (define-fun |412| () Bool
    false)
  (define-fun |required(ezcsp__leq(nWeight(4),ezcsp__mn(ezcsp__pl(32,59),32)))| () Bool
    true)
  (define-fun |required(ezcsp__gt(nWeight(3),ezcsp__mn(ezcsp__pl(32,59),32)))| () Bool
    false)
  (define-fun |required(ezcsp__eq(nWeight(5),ezcsp__pl(nWeight(4),0)))| () Bool
    false)
  (define-fun |required(ezcsp__eq(nWeight(4),130))| () Bool
    false)
  (define-fun |required(ezcsp__leq(nWeight(2),ezcsp__mn(ezcsp__pl(54,69),54)))| () Bool
    false)
  (define-fun |required(ezcsp__eq(nWeight(6),112))| () Bool
    false)
  (define-fun |435| () Bool
    false)
  (define-fun |452| () Bool
    false)
  (define-fun |481| () Bool
    false)
  (define-fun |leafPos(2,2)| () Bool
    true)
  (define-fun |required(ezcsp__eq(nWeight(3),ezcsp__pl(nWeight(2),3)))| () Bool
    false)
  (define-fun |leafPos(3,0)| () Bool
    false)
  (define-fun |484| () Bool
    false)
  (define-fun |required(ezcsp__leq(nWeight(4),ezcsp__mn(ezcsp__pl(89,52),52)))| () Bool
    false)
  (define-fun |required(ezcsp__eq(nWeight(7),ezcsp__pl(nWeight(6),52)))| () Bool
    false)
  (define-fun |457| () Bool
    false)
  (define-fun |required(ezcsp__gt(nWeight(3),ezcsp__mn(ezcsp__pl(23,0),0)))| () Bool
    false)
  (define-fun |leafPos(8,2)| () Bool
    false)
  (define-fun |leafPos(7,6)| () Bool
    false)
  (define-fun |required(ezcsp__eq(nWeight(4),ezcsp__pl(nWeight(3),32)))| () Bool
    false)
  (define-fun |required(ezcsp__eq(nWeight(1),70))| () Bool
    false)
  (define-fun |required(ezcsp__eq(nWeight(2),130))| () Bool
    true)
  (define-fun |required(ezcsp__eq(nWeight(5),ezcsp__pl(nWeight(4),3)))| () Bool
    false)
  (define-fun |required(ezcsp__gt(nWeight(6),ezcsp__mn(ezcsp__pl(32,59),32)))| () Bool
    false)
  (define-fun |required(ezcsp__leq(nWeight(2),ezcsp__mn(ezcsp__pl(89,52),52)))| () Bool
    false)
  (define-fun |required(ezcsp__leq(nWeight(6),ezcsp__mn(ezcsp__pl(3,77),3)))| () Bool
    false)
  (define-fun |required(ezcsp__eq(nWeight(4),23))| () Bool
    false)
  (define-fun |required(ezcsp__gt(nWeight(6),ezcsp__mn(ezcsp__pl(85,56),56)))| () Bool
    false)
  (define-fun |required(ezcsp__leq(nWeight(5),ezcsp__mn(ezcsp__pl(32,59),32)))| () Bool
    false)
  (define-fun |required(ezcsp__eq(nWeight(3),80))| () Bool
    false)
  (define-fun |leafPos(6,4)| () Bool
    false)
  (define-fun |required(ezcsp__eq(nWeight(1),95))| () Bool
    false)
  (define-fun |required(ezcsp__leq(nWeight(5),ezcsp__mn(ezcsp__pl(67,63),63)))| () Bool
    false)
  (define-fun |required(ezcsp__eq(nWeight(6),ezcsp__pl(nWeight(5),54)))| () Bool
    false)
  (define-fun |required(ezcsp__eq(nWeight(7),91))| () Bool
    false)
  (define-fun |required(ezcsp__gt(nWeight(5),ezcsp__mn(ezcsp__pl(56,56),56)))| () Bool
    false)
  (define-fun |required(ezcsp__eq(nWeight(4),141))| () Bool
    false)
  (define-fun |leafPos(1,2)| () Bool
    false)
  (define-fun |required(ezcsp__eq(nWeight(1),145))| () Bool
    false)
  (define-fun |required(ezcsp__gt(nWeight(1),ezcsp__mn(ezcsp__pl(3,77),3)))| () Bool
    false)
  (define-fun |required(ezcsp__eq(nWeight(7),ezcsp__pl(nWeight(6),3)))| () Bool
    false)
  (define-fun |required(ezcsp__gt(nWeight(2),ezcsp__mn(ezcsp__pl(85,56),56)))| () Bool
    false)
  (define-fun |nWeight(1)| () Int
    106)
  (define-fun |required(ezcsp__eq(nWeight(4),123))| () Bool
    false)
  (define-fun |493| () Bool
    false)
  (define-fun |420| () Bool
    false)
  (define-fun |required(ezcsp__eq(nWeight(7),112))| () Bool
    true)
  (define-fun |required(ezcsp__eq(nWeight(1),57))| () Bool
    false)
  (define-fun |407| () Bool
    false)
  (define-fun |required(ezcsp__eq(nWeight(3),130))| () Bool
    false)
  (define-fun |442| () Bool
    false)
  (define-fun |required(ezcsp__eq(nWeight(3),ezcsp__pl(nWeight(2),56)))| () Bool
    false)
  (define-fun |required(ezcsp__gt(nWeight(6),ezcsp__mn(ezcsp__pl(56,56),56)))| () Bool
    true)
  (define-fun |469| () Bool
    false)
  (define-fun |required(ezcsp__leq(nWeight(1),ezcsp__mn(ezcsp__pl(32,59),32)))| () Bool
    false)
  (define-fun |required(ezcsp__eq(nWeight(2),141))| () Bool
    false)
  (define-fun |required(ezcsp__eq(nWeight(3),23))| () Bool
    true)
  (define-fun |required(ezcsp__eq(nWeight(2),ezcsp__pl(nWeight(1),0)))| () Bool
    false)
  (define-fun |required(ezcsp__leq(nWeight(3),ezcsp__mn(ezcsp__pl(89,52),52)))| () Bool
    false)
  (define-fun |453| () Bool
    false)
  (define-fun |required(ezcsp__eq(nWeight(1),79))| () Bool
    false)
  (define-fun |439| () Bool
    false)
  (define-fun |required(ezcsp__leq(nWeight(5),ezcsp__mn(ezcsp__pl(54,69),54)))| () Bool
    false)
  (define-fun |leafPos(1,3)| () Bool
    false)
  (define-fun |423| () Bool
    false)
  (define-fun |required(ezcsp__leq(nWeight(1),ezcsp__mn(ezcsp__pl(56,56),56)))| () Bool
    false)
  (define-fun |leafPos(3,4)| () Bool
    false)
  (define-fun |443| () Bool
    false)
  (define-fun |leafPos(8,3)| () Bool
    false)
  (define-fun |473| () Bool
    false)
  (define-fun |required(ezcsp__leq(nWeight(5),ezcsp__mn(ezcsp__pl(85,56),56)))| () Bool
    true)
  (define-fun |required(ezcsp__eq(nWeight(7),130))| () Bool
    false)
  (define-fun |required(ezcsp__eq(nWeight(4),ezcsp__pl(nWeight(3),63)))| () Bool
    false)
  (define-fun |424| () Bool
    false)
  (define-fun |required(ezcsp__leq(nWeight(1),ezcsp__mn(ezcsp__pl(85,56),56)))| () Bool
    false)
  (define-fun |required(ezcsp__eq(nWeight(5),ezcsp__pl(nWeight(4),56)))| () Bool
    false)
  (define-fun |required(ezcsp__gt(nWeight(5),ezcsp__mn(ezcsp__pl(89,52),52)))| () Bool
    false)
  (define-fun |required(ezcsp__leq(nWeight(4),ezcsp__mn(ezcsp__pl(54,69),54)))| () Bool
    false)
  (define-fun |nWeight(7)| () Int
    112)
  (define-fun |leafPos(5,3)| () Bool
    false)
  (define-fun |required(ezcsp__eq(nWeight(6),ezcsp__pl(nWeight(5),52)))| () Bool
    false)
  (define-fun |required(ezcsp__gt(nWeight(6),ezcsp__mn(ezcsp__pl(3,77),3)))| () Bool
    false)
  (define-fun |460| () Bool
    false)
  (define-fun |497| () Bool
    false)
  (define-fun |required(ezcsp__leq(nWeight(2),ezcsp__mn(ezcsp__pl(56,56),56)))| () Bool
    false)
  (define-fun |456| () Bool
    false)
  (define-fun |445| () Bool
    false)
  (define-fun |required(ezcsp__eq(nWeight(1),121))| () Bool
    false)
  (define-fun |required(ezcsp__gt(nWeight(2),ezcsp__mn(ezcsp__pl(56,56),56)))| () Bool
    false)
  (define-fun |required(ezcsp__eq(nWeight(1),92))| () Bool
    false)
  (define-fun |required(ezcsp__gt(nWeight(6),ezcsp__mn(ezcsp__pl(23,0),0)))| () Bool
    false)
  (define-fun |required(ezcsp__gt(nWeight(2),ezcsp__mn(ezcsp__pl(32,59),32)))| () Bool
    false)
  (define-fun |required(ezcsp__eq(nWeight(5),ezcsp__pl(nWeight(4),32)))| () Bool
    true)
  (define-fun |448| () Bool
    false)
  (define-fun |required(ezcsp__gt(nWeight(1),ezcsp__mn(ezcsp__pl(23,0),0)))| () Bool
    false)
  (define-fun |leafPos(5,4)| () Bool
    false)
  (define-fun |leafPos(1,7)| () Bool
    false)
  (define-fun |leafPos(1,4)| () Bool
    false)
  (define-fun |required(ezcsp__eq(nWeight(1),55))| () Bool
    false)
  (define-fun |required(ezcsp__eq(nWeight(4),ezcsp__pl(nWeight(3),54)))| () Bool
    false)
  (define-fun |483| () Bool
    false)
  (define-fun |474| () Bool
    false)
  (define-fun |required(ezcsp__leq(nWeight(3),ezcsp__mn(ezcsp__pl(54,69),54)))| () Bool
    false)
  (define-fun |required(ezcsp__eq(nWeight(1),106))| () Bool
    true)
  (define-fun |required(ezcsp__leq(nWeight(1),ezcsp__mn(ezcsp__pl(67,63),63)))| () Bool
    false)
  (define-fun |471| () Bool
    false)
  (define-fun |421| () Bool
    false)
  (define-fun |required(ezcsp__eq(nWeight(4),112))| () Bool
    false)
  (define-fun |466| () Bool
    false)
  (define-fun |436| () Bool
    false)
  (define-fun |leafPos(6,0)| () Bool
    false)
  (define-fun |leafPos(7,2)| () Bool
    false)
  (define-fun |required(ezcsp__eq(nWeight(1),23))| () Bool
    false)
  (define-fun |required(ezcsp__gt(nWeight(5),ezcsp__mn(ezcsp__pl(3,77),3)))| () Bool
    false)
  (define-fun |491| () Bool
    false)
  (define-fun |required(ezcsp__eq(nWeight(4),ezcsp__pl(nWeight(3),52)))| () Bool
    false)
  (define-fun |posColor(3,green)| () Bool
    true)
  (define-fun |475| () Bool
    false)
  (define-fun |465| () Bool
    false)
  (define-fun |449| () Bool
    false)
  (define-fun |required(ezcsp__leq(nWeight(1),ezcsp__mn(ezcsp__pl(3,77),3)))| () Bool
    false)
  (define-fun |leafPos(8,0)| () Bool
    false)
  (define-fun |required(ezcsp__eq(nWeight(1),139))| () Bool
    false)
  (define-fun |required(ezcsp__gt(nWeight(1),ezcsp__mn(ezcsp__pl(85,56),56)))| () Bool
    false)
  (define-fun |required(ezcsp__eq(nWeight(1),119))| () Bool
    false)
  (define-fun |required(ezcsp__eq(nWeight(1),123))| () Bool
    false)
  (define-fun |required(ezcsp__eq(nWeight(6),80))| () Bool
    false)
  (define-fun |496| () Bool
    false)
  (define-fun |required(ezcsp__gt(nWeight(5),ezcsp__mn(ezcsp__pl(54,69),54)))| () Bool
    false)
  (define-fun |posColor(5,green)| () Bool
    false)
  (define-fun |425| () Bool
    false)
  (define-fun |required(ezcsp__gt(nWeight(2),ezcsp__mn(ezcsp__pl(54,69),54)))| () Bool
    false)
  (define-fun |leafPos(8,4)| () Bool
    true)
  (define-fun |required(ezcsp__gt(nWeight(4),ezcsp__mn(ezcsp__pl(3,77),3)))| () Bool
    false)
  (define-fun |required(ezcsp__eq(nWeight(1),85))| () Bool
    false)
  (define-fun |487| () Bool
    false)
  (define-fun |required(ezcsp__gt(nWeight(2),ezcsp__mn(ezcsp__pl(3,77),3)))| () Bool
    false)
  (define-fun |leafPos(3,3)| () Bool
    true)
  (define-fun |posColor(4,red)| () Bool
    true)
  (define-fun |leafPos(5,6)| () Bool
    false)
  (define-fun |required(ezcsp__eq(nWeight(1),67))| () Bool
    false)
  (define-fun |required(ezcsp__leq(nWeight(6),ezcsp__mn(ezcsp__pl(67,63),63)))| () Bool
    false)
  (define-fun |411| () Bool
    false)
  (define-fun |required(ezcsp__eq(nWeight(7),123))| () Bool
    false)
  (define-fun |429| () Bool
    false)
  (define-fun |required(ezcsp__gt(nWeight(3),ezcsp__mn(ezcsp__pl(89,52),52)))| () Bool
    false)
  (define-fun |nWeight(4)| () Int
    26)
  (define-fun |required(ezcsp__eq(nWeight(7),ezcsp__pl(nWeight(6),56)))| () Bool
    false)
  (define-fun |required(ezcsp__eq(nWeight(2),91))| () Bool
    false)
  (define-fun |463| () Bool
    false)
  (define-fun |nWeight(2)| () Int
    130)
  (define-fun |405| () Bool
    true)
  (define-fun |label_order(nWeight(1),1)| () Bool
    true)
  (define-fun |label_order(nWeight(2),1)| () Bool
    true)
  (define-fun |label_order(nWeight(3),1)| () Bool
    true)
  (define-fun |label_order(nWeight(4),1)| () Bool
    true)
  (define-fun |label_order(nWeight(5),1)| () Bool
    true)
  (define-fun |label_order(nWeight(6),1)| () Bool
    true)
  (define-fun |label_order(nWeight(7),1)| () Bool
    true)
  (define-fun |required(ezcsp__sum(list(nWeight,1),ezcsp__leq,569))| () Bool
    true)
  (define-fun |172| () Bool
    true)
  (define-fun |171| () Bool
    true)
  (define-fun |167| () Bool
    true)
  (define-fun |166| () Bool
    true)
  (define-fun |162| () Bool
    true)
  (define-fun |161| () Bool
    true)
  (define-fun |157| () Bool
    true)
  (define-fun |156| () Bool
    true)
  (define-fun |152| () Bool
    true)
  (define-fun |151| () Bool
    true)
  (define-fun |147| () Bool
    true)
  (define-fun |146| () Bool
    true)
  (define-fun |139| () Bool
    true)
  (define-fun |138| () Bool
    true)
  (define-fun |129| () Bool
    true)
  (define-fun |128| () Bool
    true)
  (define-fun |119| () Bool
    true)
  (define-fun |118| () Bool
    true)
  (define-fun |109| () Bool
    true)
  (define-fun |108| () Bool
    true)
  (define-fun |99| () Bool
    true)
  (define-fun |98| () Bool
    true)
  (define-fun |89| () Bool
    true)
  (define-fun |88| () Bool
    true)
  (define-fun |79| () Bool
    true)
  (define-fun |78| () Bool
    true)
  (define-fun |69| () Bool
    false)
  (define-fun |68| () Bool
    true)
  (define-fun |67| () Bool
    true)
  (define-fun |location(7)| () Bool
    true)
  (define-fun |location(6)| () Bool
    true)
  (define-fun |location(5)| () Bool
    true)
  (define-fun |location(4)| () Bool
    true)
  (define-fun |location(3)| () Bool
    true)
  (define-fun |location(2)| () Bool
    true)
  (define-fun |location(1)| () Bool
    true)
  (define-fun |leafCost(2,63)| () Bool
    true)
  (define-fun |leafCost(3,0)| () Bool
    true)
  (define-fun |leafCost(5,52)| () Bool
    true)
  (define-fun |leafCost(6,56)| () Bool
    true)
  (define-fun |leafCost(1,54)| () Bool
    true)
  (define-fun |leafCost(4,56)| () Bool
    true)
  (define-fun |leafCost(7,32)| () Bool
    true)
  (define-fun |leafCost(8,3)| () Bool
    true)
  (define-fun |cspvar(nWeight(1),0,569)| () Bool
    true)
  (define-fun |cspvar(nWeight(2),0,569)| () Bool
    true)
  (define-fun |cspvar(nWeight(3),0,569)| () Bool
    true)
  (define-fun |cspvar(nWeight(4),0,569)| () Bool
    true)
  (define-fun |cspvar(nWeight(5),0,569)| () Bool
    true)
  (define-fun |cspvar(nWeight(6),0,569)| () Bool
    true)
  (define-fun |cspvar(nWeight(7),0,569)| () Bool
    true)
  (define-fun |coloredPos(7)| () Bool
    true)
  (define-fun |coloredPos(6)| () Bool
    true)
  (define-fun |coloredPos(5)| () Bool
    true)
  (define-fun |coloredPos(4)| () Bool
    true)
  (define-fun |coloredPos(3)| () Bool
    true)
  (define-fun |coloredPos(2)| () Bool
    true)
  (define-fun |coloredPos(1)| () Bool
    true)
  (define-fun |leaf(1)| () Bool
    true)
  (define-fun |leaf(2)| () Bool
    true)
  (define-fun |leaf(3)| () Bool
    true)
  (define-fun |leaf(4)| () Bool
    true)
  (define-fun |leaf(5)| () Bool
    true)
  (define-fun |leaf(6)| () Bool
    true)
  (define-fun |leaf(7)| () Bool
    true)
  (define-fun |leaf(8)| () Bool
    true)
  (define-fun |max_total_weight(569)| () Bool
    true)
  (define-fun |num(8)| () Bool
    true)
  (define-fun |innerNode(7)| () Bool
    true)
  (define-fun |innerNode(6)| () Bool
    true)
  (define-fun |innerNode(5)| () Bool
    true)
  (define-fun |innerNode(4)| () Bool
    true)
  (define-fun |innerNode(3)| () Bool
    true)
  (define-fun |innerNode(2)| () Bool
    true)
  (define-fun |innerNode(1)| () Bool
    true)
  (define-fun |leafWeightCardinality(8,3,77)| () Bool
    true)
  (define-fun |leafWeightCardinality(7,32,59)| () Bool
    true)
  (define-fun |leafWeightCardinality(6,85,56)| () Bool
    true)
  (define-fun |leafWeightCardinality(5,89,52)| () Bool
    true)
  (define-fun |leafWeightCardinality(4,56,56)| () Bool
    true)
  (define-fun |leafWeightCardinality(3,23,0)| () Bool
    true)
  (define-fun |leafWeightCardinality(2,67,63)| () Bool
    true)
  (define-fun |leafWeightCardinality(1,54,69)| () Bool
    true)
  (define-fun |location(0)| () Bool
    true)
  (define-fun |color(green)| () Bool
    true)
  (define-fun |color(blue)| () Bool
    true)
  (define-fun |color(red)| () Bool
    true)
)
